n = 10; 

m=14; 



 
74	1	89	78	14	48	91	33	46	1
93	78	41	30	42	71	6	16	76	63
45	79	47	33	75	81	66	78	41	38
69	57	43	90	30	46	49	77	67	54
79	75	91	79	23	60	97	55	76	14
99	36	32	53	67	68	97	9	16	55
26	49	42	15	66	67	40	97	13	54
91	13	94	52	7	71	1	84	38	61
20	64	97	82	36	99	41	30	80	70
30	58	95	96	92	54	18	20	27	59
22	39	64	56	9	17	55	40	87	60
64	60	75	83	41	27	94	22	96	21
77	26	69	97	76	37	50	99	80	68
26	49	42	15	66	67	40	97	13	54


			
		
